(set-logic QF_UF)
(declare-fun A0 () Bool)
(declare-fun A1 () Bool)
(declare-fun A2 () Bool)
(declare-fun A3 () Bool)
(declare-fun A4 () Bool)
(declare-fun A5 () Bool)
(declare-fun A6 () Bool)
(declare-fun A7 () Bool)
(declare-fun A8 () Bool)
(declare-fun A9 () Bool)
(declare-fun A10 () Bool)
(declare-fun A11 () Bool)
(declare-fun A12 () Bool)
(declare-fun A13 () Bool)
(declare-fun A14 () Bool)
(declare-fun A15 () Bool)
(declare-fun A16 () Bool)
(declare-fun A17 () Bool)
(declare-fun A19 () Bool)
(declare-fun A20 () Bool)
(declare-fun A21 () Bool)
(declare-fun A22 () Bool)
(declare-fun A23 () Bool)
(declare-fun A24 () Bool)
(declare-fun A26 () Bool)
(declare-fun A27 () Bool)
(declare-fun A28 () Bool)
(declare-fun A29 () Bool)
(assert (let ((.def_0 (not A22))) (let ((.def_1 (or A7 .def_0))) (let ((.def_2 (not .def_1))) (let ((.def_3 (not A0))) (let ((.def_4 (and .def_3 A6))) (let ((.def_5 (not .def_4))) (let ((.def_6 (or .def_5 .def_2))) (let ((.def_7 (not A20))) (let ((.def_8 (not A17))) (let ((.def_9 (or .def_8 .def_7))) (let ((.def_10 (= A21 A24))) (let ((.def_11 (not .def_10))) (let ((.def_12 (or .def_11 .def_9))) (let ((.def_13 (not .def_12))) (let ((.def_14 (or .def_13 .def_6))) (let ((.def_15 (not .def_14))) (let ((.def_16 (not A28))) (let ((.def_17 (and .def_16 A8))) (let ((.def_18 (not A24))) (let ((.def_19 (not A15))) (let ((.def_20 (= .def_19 .def_18))) (let ((.def_21 (and .def_20 .def_17))) (let ((.def_22 (and A7 A9))) (let ((.def_23 (not .def_22))) (let ((.def_24 (not A5))) (let ((.def_25 (not A11))) (let ((.def_26 (= .def_25 .def_24))) (let ((.def_27 (and .def_26 .def_23))) (let ((.def_28 (and .def_27 .def_21))) (let ((.def_29 (or .def_28 .def_15))) (let ((.def_30 (not A23))) (let ((.def_31 (and A6 .def_30))) (let ((.def_32 (not A26))) (let ((.def_33 (and A29 .def_32))) (let ((.def_34 (not .def_33))) (let ((.def_35 (or .def_34 .def_31))) (let ((.def_36 (not A4))) (let ((.def_37 (and A29 .def_36))) (let ((.def_38 (not .def_37))) (let ((.def_39 (or A2 A23))) (let ((.def_40 (not .def_39))) (let ((.def_41 (and .def_40 .def_38))) (let ((.def_42 (and .def_41 .def_35))) (let ((.def_43 (not .def_42))) (let ((.def_44 (not A12))) (let ((.def_45 (or A0 .def_44))) (let ((.def_46 (not .def_45))) (let ((.def_47 (= A9 A20))) (let ((.def_48 (not .def_47))) (let ((.def_49 (and .def_48 .def_46))) (let ((.def_50 (not .def_49))) (let ((.def_51 (not A21))) (let ((.def_52 (or .def_3 .def_51))) (let ((.def_53 (and A17 .def_51))) (let ((.def_54 (not .def_53))) (let ((.def_55 (or .def_54 .def_52))) (let ((.def_56 (and .def_55 .def_50))) (let ((.def_57 (not .def_56))) (let ((.def_58 (and .def_57 .def_43))) (let ((.def_59 (not .def_58))) (let ((.def_60 (or .def_59 .def_29))) (let ((.def_61 (not A10))) (let ((.def_62 (or .def_8 .def_61))) (let ((.def_63 (not .def_62))) (let ((.def_64 (and A14 A3))) (let ((.def_65 (and .def_64 .def_63))) (let ((.def_66 (not A16))) (let ((.def_67 (and A8 .def_66))) (let ((.def_68 (or A1 A12))) (let ((.def_69 (not .def_68))) (let ((.def_70 (or .def_69 .def_67))) (let ((.def_71 (not .def_70))) (let ((.def_72 (and .def_71 .def_65))) (let ((.def_73 (not .def_72))) (let ((.def_74 (or .def_8 A3))) (let ((.def_75 (not A29))) (let ((.def_76 (and .def_75 A28))) (let ((.def_77 (and .def_76 .def_74))) (let ((.def_78 (or A13 .def_75))) (let ((.def_79 (not .def_78))) (let ((.def_80 (and A10 A0))) (let ((.def_81 (not .def_80))) (let ((.def_82 (or .def_81 .def_79))) (let ((.def_83 (or .def_82 .def_77))) (let ((.def_84 (not .def_83))) (let ((.def_85 (and .def_84 .def_73))) (let ((.def_86 (not .def_85))) (let ((.def_87 (not A19))) (let ((.def_88 (and .def_87 A17))) (let ((.def_89 (not A1))) (let ((.def_90 (and .def_16 .def_89))) (let ((.def_91 (or .def_90 .def_88))) (let ((.def_92 (and A7 A11))) (let ((.def_93 (not A27))) (let ((.def_94 (or .def_93 .def_51))) (let ((.def_95 (and .def_94 .def_92))) (let ((.def_96 (not .def_95))) (let ((.def_97 (and .def_96 .def_91))) (let ((.def_98 (not .def_97))) (let ((.def_99 (or .def_66 A24))) (let ((.def_100 (or A11 .def_44))) (let ((.def_101 (and .def_100 .def_99))) (let ((.def_102 (not .def_101))) (let ((.def_103 (not A13))) (let ((.def_104 (or .def_103 .def_93))) (let ((.def_105 (and .def_24 A22))) (let ((.def_106 (not .def_105))) (let ((.def_107 (and .def_106 .def_104))) (let ((.def_108 (not .def_107))) (let ((.def_109 (and .def_108 .def_102))) (let ((.def_110 (not .def_109))) (let ((.def_111 (or .def_110 .def_98))) (let ((.def_112 (not .def_111))) (let ((.def_113 (or .def_112 .def_86))) (let ((.def_114 (or .def_113 .def_60))) .def_114))))))))))))))))))))))))))))))))))))))))))))))))))))))))))))))))))))))))))))))))))))))))))))))))))))))))))))))))))))
(check-sat)
